
  32    4
  10   10   10   10

   0   0   0   0   0  13 2 4 7 8 9 10 14 15 16 17 29 30 31 
   7   0   1   1   1   8 28 27 25 24 23 22 13 3 
   1   1   6   3   0   2 20 5 
   5   3   4   4   0   5 25 24 20 13 11 
   4   2   4   0   4   3 21 12 6 
  10   0   6   5   3   2 19 11 
   6   0   3   5   5   2 23 11 
   2   4   0   6   2   2 26 22 
   4   4   3   5   0   2 22 19 
   8   3   0   5   2   1 12 
   6   3   0   2   4   1 18 
   2   3   2   0   8   1 19 
   6   3   4   3   0   1 18 
   3   2   5   0   3   1 21 
   6   6   4   4   0   1 20 
   3   7   0   3   3   1 20 
   6   5   0   5   4   1 18 
  10   4   3   0   4   1 32
   1   0   8   5   4   1 32
   9   4   3   4   0   1 32
   1   8   0   2   3   1 32
  10   4   0   3   8   1 32
  10   3   5   7   0   1 32
   6   3   0   4   4   1 32
   9   0   5   5   7   1 32
   3   0   4   5   5   1 32
   9   0   3   1   5   1 32
   5   3   0   4   3   1 32
   7   5   0   5   4   1 32
   5   5   4   0   2   1 32
   2   7   3   0   4   1 32
   0   0   0   0   0   0 
